(set-logic QF_S)
(declare-fun var0 () String)
(declare-fun var1 () String)
(declare-fun var2 () Int)
(declare-fun var3 () String)
(declare-fun var4 () String)
(declare-fun var5 () Bool)
(declare-fun var6 () Int)
(declare-fun var7 () Int)
(declare-fun var8 () Int)
(assert (> (str.indexof var0 var1 var2) (str.len (str.replace var3 var4 var3))))
(assert (not var5))
(assert (> (str.indexof (str.at var4 var6) (str.at var0 var7) (str.to.int var1)) (str.indexof var4 var0 var8)))
(assert (str.in.re (str.substr var1 var6 var7) (re.* re.allchar)))
(check-sat)